n=214;
k_min=7;
k_max=7;
M=[| 166, 141, 146, 126, 146, 126, 145
 | 166, 138, 146, 126, 151, 120, 150
 | 164, 139, 145, 126, 152, 121, 150
 | 165, 141, 145, 126, 149, 123, 148
 | 163, 141, 145, 125, 151, 122, 149
 | 165, 142, 144, 126, 150, 122, 148
 | 164, 141, 145, 125, 151, 122, 148
 | 164, 142, 145, 125, 151, 123, 147
 | 166, 139, 147, 127, 149, 121, 147
 | 165, 143, 145, 125, 150, 123, 147
 | 164, 142, 144, 126, 150, 122, 148
 | 164, 144, 144, 125, 149, 124, 146
 | 164, 142, 144, 126, 151, 122, 148
 | 164, 143, 144, 125, 150, 124, 147
 | 163, 145, 144, 125, 150, 125, 146
 | 164, 144, 144, 125, 150, 124, 146
 | 163, 145, 144, 125, 149, 126, 145
 | 164, 143, 149, 126, 145, 127, 143
 | 166, 142, 148, 124, 148, 125, 144
 | 164, 143, 145, 125, 149, 123, 147
 | 164, 144, 145, 125, 149, 124, 146
 | 166, 143, 149, 124, 147, 125, 143
 | 164, 144, 145, 125, 148, 125, 145
 | 164, 144, 145, 125, 149, 124, 146
 | 164, 142, 146, 125, 150, 123, 146
 | 165, 143, 145, 125, 149, 124, 146
 | 165, 142, 146, 125, 149, 123, 147
 | 165, 143, 145, 125, 150, 123, 146
 | 163, 145, 144, 125, 149, 125, 146
 | 166, 143, 145, 124, 149, 123, 146
 | 163, 145, 144, 125, 149, 125, 145
 | 163, 144, 145, 124, 150, 125, 146
 | 164, 144, 145, 125, 149, 124, 146
 | 163, 145, 144, 125, 150, 125, 145
 | 163, 145, 145, 125, 148, 125, 145
 | 165, 142, 146, 125, 150, 123, 146
 | 166, 141, 148, 126, 147, 124, 145
 | 164, 145, 145, 125, 149, 125, 145
 | 163, 144, 149, 125, 146, 129, 141
 | 163, 144, 149, 125, 146, 129, 141
 | 164, 145, 145, 124, 149, 125, 145
 | 163, 145, 145, 124, 149, 125, 145
 | 165, 143, 146, 125, 149, 123, 146
 | 164, 144, 148, 125, 145, 130, 141
 | 163, 145, 145, 125, 148, 126, 145
 | 164, 143, 148, 126, 146, 125, 144
 | 164, 144, 147, 124, 149, 125, 144
 | 164, 145, 149, 125, 144, 130, 140
 | 164, 147, 147, 124, 144, 132, 139
 | 164, 142, 148, 126, 147, 125, 144
 | 166, 145, 148, 124, 144, 131, 139
 | 162, 145, 148, 125, 147, 126, 143
 | 161, 144, 149, 124, 150, 125, 143
 | 162, 145, 149, 123, 149, 126, 142
 | 162, 145, 149, 123, 150, 125, 142
 | 166, 148, 145, 121, 149, 126, 140
 | 164, 143, 145, 125, 150, 123, 147
 | 165, 143, 145, 125, 149, 123, 146
 | 163, 140, 145, 126, 151, 122, 149
 | 165, 141, 145, 125, 150, 122, 148
 | 166, 142, 147, 123, 149, 124, 144
 | 166, 141, 148, 126, 147, 124, 146
 | 163, 144, 148, 126, 145, 129, 142
 | 163, 144, 149, 126, 144, 130, 141
 | 163, 145, 148, 124, 145, 129, 141
 | 163, 144, 149, 124, 146, 128, 142
 | 166, 147, 147, 123, 144, 130, 139
 | 166, 147, 147, 123, 145, 131, 139
 | 166, 147, 147, 123, 145, 130, 139
 | 164, 147, 148, 123, 144, 132, 138
 | 166, 138, 146, 128, 149, 119, 150
 | 166, 140, 146, 127, 147, 123, 147
 | 165, 140, 144, 126, 151, 121, 150
 | 164, 140, 145, 126, 151, 121, 150
 | 165, 141, 144, 126, 151, 121, 149
 | 165, 141, 144, 126, 151, 121, 149
 | 165, 140, 145, 127, 149, 121, 149
 | 165, 141, 144, 126, 150, 122, 149
 | 165, 139, 146, 125, 152, 121, 149
 | 164, 142, 144, 127, 150, 122, 149
 | 163, 141, 144, 128, 149, 122, 149
 | 164, 140, 145, 126, 152, 121, 150
 | 164, 140, 145, 126, 151, 122, 149
 | 165, 141, 144, 126, 150, 121, 149
 | 166, 135, 145, 131, 150, 116, 154
 | 164, 141, 146, 125, 150, 122, 148
 | 163, 141, 145, 125, 152, 122, 148
 | 165, 140, 145, 126, 150, 121, 149
 | 165, 142, 144, 126, 150, 122, 148
 | 164, 143, 143, 126, 150, 123, 148
 | 163, 145, 146, 126, 146, 127, 144
 | 164, 143, 145, 125, 150, 123, 147
 | 166, 142, 146, 122, 152, 123, 145
 | 164, 142, 146, 124, 152, 122, 147
 | 164, 143, 144, 125, 150, 123, 147
 | 164, 142, 147, 126, 148, 124, 146
 | 162, 145, 146, 126, 147, 127, 143
 | 166, 147, 143, 123, 148, 127, 142
 | 166, 144, 145, 124, 150, 123, 144
 | 163, 145, 147, 124, 150, 124, 144
 | 166, 145, 146, 122, 150, 124, 143
 | 166, 148, 146, 123, 146, 127, 140
 | 166, 149, 146, 120, 149, 129, 139
 | 166, 148, 147, 124, 142, 137, 132
 | 166, 148, 150, 122, 144, 133, 133
 | 145, 156, 144, 127, 144, 155, 126
 | 146, 149, 143, 134, 143, 149, 133
 | 148, 151, 143, 130, 141, 155, 128
 | 147, 166, 154, 117, 150, 138, 124
 | 148, 156, 151, 121, 150, 140, 130
 | 144, 153, 142, 125, 141, 165, 126
 | 144, 152, 142, 126, 141, 166, 126
 | 147, 156, 144, 124, 142, 158, 125
 | 166, 140, 145, 126, 149, 122, 148
 | 166, 142, 144, 126, 147, 124, 147
 | 166, 141, 145, 126, 148, 123, 148
 | 166, 141, 145, 126, 148, 123, 147
 | 166, 138, 145, 128, 148, 120, 150
 | 166, 140, 145, 127, 149, 121, 149
 | 164, 139, 146, 127, 150, 121, 149
 | 166, 141, 145, 126, 148, 123, 147
 | 165, 141, 144, 126, 150, 122, 149
 | 164, 141, 145, 126, 150, 122, 148
 | 165, 140, 146, 127, 150, 120, 149
 | 165, 142, 145, 125, 149, 124, 146
 | 166, 143, 145, 126, 148, 124, 146
 | 165, 143, 145, 125, 148, 124, 146
 | 159, 148, 154, 123, 148, 128, 137
 | 159, 147, 153, 123, 150, 126, 138
 | 155, 153, 156, 121, 151, 131, 130
 | 153, 157, 155, 119, 150, 136, 127
 | 149, 159, 147, 124, 145, 149, 124
 | 165, 140, 145, 127, 149, 123, 148
 | 164, 140, 146, 128, 147, 123, 148
 | 164, 141, 145, 126, 150, 122, 148
 | 165, 142, 145, 126, 148, 124, 147
 | 164, 143, 144, 125, 150, 124, 147
 | 166, 142, 144, 126, 150, 122, 148
 | 166, 141, 143, 125, 151, 121, 149
 | 166, 141, 143, 126, 150, 121, 149
 | 166, 140, 145, 126, 149, 121, 148
 | 166, 142, 145, 125, 149, 123, 147
 | 164, 142, 144, 126, 150, 123, 148
 | 164, 142, 145, 127, 149, 122, 148
 | 163, 145, 146, 124, 150, 125, 144
 | 164, 144, 145, 126, 148, 125, 145
 | 165, 142, 147, 123, 150, 124, 145
 | 164, 141, 146, 126, 150, 122, 147
 | 165, 142, 146, 125, 149, 123, 147
 | 162, 146, 143, 126, 148, 126, 145
 | 164, 142, 146, 126, 149, 123, 147
 | 163, 144, 149, 126, 145, 128, 142
 | 163, 143, 147, 123, 150, 126, 144
 | 164, 141, 146, 125, 150, 122, 147
 | 164, 144, 145, 125, 148, 125, 145
 | 165, 143, 146, 124, 150, 124, 145
 | 164, 142, 147, 125, 150, 124, 145
 | 163, 144, 149, 125, 145, 129, 141
 | 165, 142, 148, 126, 147, 124, 145
 | 166, 142, 148, 126, 147, 124, 144
 | 164, 143, 148, 126, 147, 125, 144
 | 164, 143, 148, 123, 149, 126, 144
 | 166, 142, 148, 126, 145, 126, 143
 | 151, 136, 142, 143, 149, 123, 152
 | 158, 151, 150, 122, 149, 132, 134
 | 153, 162, 145, 122, 143, 143, 129
 | 150, 166, 142, 122, 142, 146, 129
 | 147, 156, 149, 122, 150, 145, 127
 | 149, 151, 150, 126, 152, 136, 132
 | 147, 159, 152, 121, 152, 140, 126
 | 147, 166, 150, 120, 148, 144, 122
 | 143, 136, 139, 166, 143, 127, 143
 | 143, 136, 139, 165, 143, 127, 143
 | 147, 164, 149, 120, 147, 147, 123
 | 156, 148, 151, 126, 151, 129, 136
 | 148, 157, 151, 120, 151, 142, 127
 | 163, 147, 154, 120, 149, 126, 137
 | 160, 148, 154, 120, 149, 129, 137
 | 166, 146, 156, 119, 150, 122, 138
 | 163, 146, 155, 120, 151, 124, 138
 | 152, 141, 148, 123, 166, 121, 145
 | 155, 153, 166, 116, 155, 123, 128
 | 149, 158, 157, 118, 156, 134, 125
 | 148, 161, 154, 119, 150, 138, 127
 | 147, 144, 148, 133, 153, 128, 144
 | 156, 133, 140, 137, 148, 117, 166
 | 156, 135, 142, 138, 149, 119, 158
 | 163, 143, 148, 125, 148, 125, 145
 | 155, 146, 152, 131, 147, 127, 138
 | 166, 143, 149, 129, 147, 122, 141
 | 158, 145, 153, 122, 154, 123, 142
 | 150, 147, 155, 123, 165, 122, 136
 | 150, 147, 154, 123, 163, 125, 135
 | 149, 146, 153, 125, 163, 123, 138
 | 149, 146, 152, 124, 165, 123, 138
 | 150, 147, 154, 123, 164, 124, 134
 | 149, 149, 154, 122, 162, 126, 133
 | 150, 148, 155, 121, 166, 122, 134
 | 150, 147, 155, 122, 166, 123, 134
 | 150, 147, 156, 123, 163, 121, 135
 | 150, 146, 154, 125, 162, 122, 138
 | 149, 147, 143, 137, 147, 134, 140
 | 150, 146, 153, 125, 162, 123, 138
 | 149, 145, 152, 126, 163, 122, 140
 | 150, 147, 155, 123, 164, 122, 136
 | 150, 147, 153, 124, 162, 123, 138
 | 150, 147, 154, 124, 162, 123, 137
 | 146, 138, 143, 136, 166, 120, 148
 | 150, 149, 156, 121, 166, 124, 131
 | 150, 147, 154, 125, 162, 125, 135
 | 149, 146, 153, 125, 162, 122, 139
 | 149, 145, 151, 124, 166, 123, 139
 | 149, 145, 151, 124, 165, 123, 139
 | 149, 146, 152, 124, 165, 124, 138 |];
 P=[1, 1, 1, 1, 1, 1, 1, 1, 1, 1, 1, 1, 1, 1, 1, 1, 1, 1, 1, 1, 1, 1, 1, 1, 1, 1, 1, 1, 1, 1, 1, 1, 1, 1, 1, 1, 1, 1, 1, 1, 1, 1, 1, 1, 1, 1, 1, 1, 1, 1, 1, 1, 1, 1, 1, 1, 1, 1, 1, 1, 1, 1, 1, 1, 1, 1, 1, 1, 1, 1, 1, 1, 1, 1, 1, 1, 1, 1, 1, 1, 1, 1, 1, 1, 1, 1, 1, 1, 1, 1, 1, 1, 1, 1, 1, 1, 1, 1, 1, 1, 1, 1, 1, 1, 1, 6, 6, 6, 2, 2, 6, 6, 6, 1, 1, 1, 1, 1, 1, 1, 1, 1, 1, 1, 1, 1, 1, 1, 1, 1, 2, 6, 1, 1, 1, 1, 1, 1, 1, 1, 1, 1, 1, 1, 1, 1, 1, 1, 1, 1, 1, 1, 1, 1, 1, 1, 1, 1, 1, 1, 1, 1, 1, 7, 1, 2, 2, 2, 2, 2, 2, 4, 4, 2, 1, 2, 1, 1, 1, 1, 5, 3, 2, 2, 5, 7, 7, 1, 1, 1, 3, 5, 5, 5, 5, 5, 5, 5, 5, 5, 5, 2, 5, 5, 5, 5, 5, 5, 5, 5, 5, 5, 5, 5 ];